
Gurobi 9.1.2 (linux64) logging started Wed Nov 24 10:26:34 2021

Changed value of parameter LogFile to lemke_square_v-(2, 7).log-s20-l10.log
   Prev:   Default: 
Changed value of parameter Threads to 32
   Prev: 0  Min: 0  Max: 1024  Default: 0
Changed value of parameter TimeLimit to 3600.0
   Prev: inf  Min: 0.0  Max: inf  Default: inf
Changed value of parameter MIPGap to 0.4
   Prev: 0.0001  Min: 0.0  Max: inf  Default: 0.0001
Warning: variable name "X[(7, 4),(7, 3)]" has a space
Warning: constraint name "flow-constr-t0-v(3, 0)" has a space
Warning: to let Gurobi read it back, use rlp format
Gurobi Optimizer version 9.1.2 build v9.1.2rc0 (linux64)
Thread count: 16 physical cores, 32 logical processors, using up to 32 threads
Optimize a model with 5993 rows, 5440 columns and 20620 nonzeros
Model fingerprint: 0x3cd95641
Variable types: 0 continuous, 5440 integer (4800 binary)
Coefficient statistics:
  Matrix range     [1e+00, 1e+03]
  Objective range  [1e-01, 1e-01]
  Bounds range     [1e+00, 5e+02]
  RHS range        [1e+00, 1e+03]
Presolve removed 607 rows and 650 columns
Presolve time: 0.04s
Presolved: 5386 rows, 4790 columns, 17870 nonzeros
Variable types: 0 continuous, 4790 integer (4150 binary)

Root relaxation: objective 6.400000e+01, 126 iterations, 0.00 seconds

    Nodes    |    Current Node    |     Objective Bounds      |     Work
 Expl Unexpl |  Obj  Depth IntInf | Incumbent    BestBd   Gap | It/Node Time

     0     0   64.00000    0   44          -   64.00000      -     -    0s
     0     0   64.00000    0   71          -   64.00000      -     -    0s
     0     0   64.00000    0   71          -   64.00000      -     -    0s
     0     0   64.00000    0   54          -   64.00000      -     -    0s
     0     0   64.00000    0   57          -   64.00000      -     -    0s
     0     0   64.00000    0   51          -   64.00000      -     -    0s
H    0     0                    4203.5000000   64.00000  98.5%     -    0s
     0     0   64.00000    0   51 4203.50000   64.00000  98.5%     -    0s
H    0     0                      90.7000000   64.00000  29.4%     -    0s

Cutting planes:
  Gomory: 3
  Cover: 66
  Implied bound: 50
  Clique: 6
  MIR: 38
  Flow cover: 13
  RLT: 4
  Relax-and-lift: 38

Explored 1 nodes (2075 simplex iterations) in 0.76 seconds
Thread count was 32 (of 32 available processors)

Solution count 2: 90.7 4203.5 

Optimal solution found (tolerance 4.00e-01)
Best objective 9.070000000000e+01, best bound 6.400000000000e+01, gap 29.4377%

Gurobi 9.1.2 (linux64) logging started Wed Nov 24 10:31:42 2021

Changed value of parameter LogFile to lemke_square_v-(2, 7).log-s20-l10.log
   Prev:   Default: 
Changed value of parameter Threads to 32
   Prev: 0  Min: 0  Max: 1024  Default: 0
Changed value of parameter TimeLimit to 3600.0
   Prev: inf  Min: 0.0  Max: inf  Default: inf
Changed value of parameter MIPGap to 0.4
   Prev: 0.0001  Min: 0.0  Max: inf  Default: 0.0001
Warning: variable name "X[(7, 4),(7, 3)]" has a space
Warning: constraint name "flow-constr-t0-v(3, 0)" has a space
Warning: to let Gurobi read it back, use rlp format
Gurobi Optimizer version 9.1.2 build v9.1.2rc0 (linux64)
Thread count: 16 physical cores, 32 logical processors, using up to 32 threads
Optimize a model with 5993 rows, 5440 columns and 20620 nonzeros
Model fingerprint: 0x3cd95641
Variable types: 0 continuous, 5440 integer (4800 binary)
Coefficient statistics:
  Matrix range     [1e+00, 1e+03]
  Objective range  [1e-01, 1e-01]
  Bounds range     [1e+00, 5e+02]
  RHS range        [1e+00, 1e+03]
Presolve removed 607 rows and 650 columns
Presolve time: 0.04s
Presolved: 5386 rows, 4790 columns, 17870 nonzeros
Variable types: 0 continuous, 4790 integer (4150 binary)

Root relaxation: objective 6.400000e+01, 126 iterations, 0.00 seconds

    Nodes    |    Current Node    |     Objective Bounds      |     Work
 Expl Unexpl |  Obj  Depth IntInf | Incumbent    BestBd   Gap | It/Node Time

     0     0   64.00000    0   44          -   64.00000      -     -    0s
     0     0   64.00000    0   71          -   64.00000      -     -    0s
     0     0   64.00000    0   71          -   64.00000      -     -    0s
     0     0   64.00000    0   54          -   64.00000      -     -    0s
     0     0   64.00000    0   57          -   64.00000      -     -    0s
     0     0   64.00000    0   51          -   64.00000      -     -    0s
H    0     0                    4203.5000000   64.00000  98.5%     -    0s
     0     0   64.00000    0   51 4203.50000   64.00000  98.5%     -    0s
H    0     0                      90.7000000   64.00000  29.4%     -    0s

Cutting planes:
  Gomory: 3
  Cover: 66
  Implied bound: 50
  Clique: 6
  MIR: 38
  Flow cover: 13
  RLT: 4
  Relax-and-lift: 38

Explored 1 nodes (2075 simplex iterations) in 0.79 seconds
Thread count was 32 (of 32 available processors)

Solution count 2: 90.7 4203.5 

Optimal solution found (tolerance 4.00e-01)
Best objective 9.070000000000e+01, best bound 6.400000000000e+01, gap 29.4377%

Gurobi 9.1.2 (linux64) logging started Wed Nov 24 11:38:57 2021

Changed value of parameter LogFile to lemke_square_v-(2, 7).log-s20-l10.log
   Prev:   Default: 
Changed value of parameter Threads to 32
   Prev: 0  Min: 0  Max: 1024  Default: 0
Changed value of parameter TimeLimit to 3600.0
   Prev: inf  Min: 0.0  Max: inf  Default: inf
Changed value of parameter MIPGap to 0.34
   Prev: 0.0001  Min: 0.0  Max: inf  Default: 0.0001
Warning: variable name "X[(7, 4),(7, 3)]" has a space
Warning: constraint name "flow-constr-t0-v(3, 0)" has a space
Warning: to let Gurobi read it back, use rlp format
Gurobi Optimizer version 9.1.2 build v9.1.2rc0 (linux64)
Thread count: 16 physical cores, 32 logical processors, using up to 32 threads
Optimize a model with 5993 rows, 5440 columns and 20620 nonzeros
Model fingerprint: 0x3cd95641
Variable types: 0 continuous, 5440 integer (4800 binary)
Coefficient statistics:
  Matrix range     [1e+00, 1e+03]
  Objective range  [1e-01, 1e-01]
  Bounds range     [1e+00, 5e+02]
  RHS range        [1e+00, 1e+03]
Presolve removed 607 rows and 650 columns
Presolve time: 0.04s
Presolved: 5386 rows, 4790 columns, 17870 nonzeros
Variable types: 0 continuous, 4790 integer (4150 binary)

Root relaxation: objective 6.400000e+01, 126 iterations, 0.00 seconds

    Nodes    |    Current Node    |     Objective Bounds      |     Work
 Expl Unexpl |  Obj  Depth IntInf | Incumbent    BestBd   Gap | It/Node Time

     0     0   64.00000    0   44          -   64.00000      -     -    0s
     0     0   64.00000    0   71          -   64.00000      -     -    0s
     0     0   64.00000    0   71          -   64.00000      -     -    0s
     0     0   64.00000    0   54          -   64.00000      -     -    0s
     0     0   64.00000    0   57          -   64.00000      -     -    0s
     0     0   64.00000    0   51          -   64.00000      -     -    0s
H    0     0                    4203.5000000   64.00000  98.5%     -    0s
     0     0   64.00000    0   51 4203.50000   64.00000  98.5%     -    0s
H    0     0                      90.7000000   64.00000  29.4%     -    0s

Cutting planes:
  Gomory: 3
  Cover: 66
  Implied bound: 50
  Clique: 6
  MIR: 38
  Flow cover: 13
  RLT: 4
  Relax-and-lift: 38

Explored 1 nodes (2075 simplex iterations) in 0.77 seconds
Thread count was 32 (of 32 available processors)

Solution count 2: 90.7 4203.5 

Optimal solution found (tolerance 3.40e-01)
Best objective 9.070000000000e+01, best bound 6.400000000000e+01, gap 29.4377%

Gurobi 9.1.2 (linux64) logging started Wed Nov 24 11:40:16 2021

Changed value of parameter LogFile to lemke_square_v-(2, 7).log-s20-l10.log
   Prev:   Default: 
Changed value of parameter Threads to 32
   Prev: 0  Min: 0  Max: 1024  Default: 0
Changed value of parameter TimeLimit to 3600.0
   Prev: inf  Min: 0.0  Max: inf  Default: inf
Changed value of parameter MIPGap to 0.3
   Prev: 0.0001  Min: 0.0  Max: inf  Default: 0.0001
Warning: variable name "X[(7, 4),(7, 3)]" has a space
Warning: constraint name "flow-constr-t0-v(3, 0)" has a space
Warning: to let Gurobi read it back, use rlp format
Gurobi Optimizer version 9.1.2 build v9.1.2rc0 (linux64)
Thread count: 16 physical cores, 32 logical processors, using up to 32 threads
Optimize a model with 5993 rows, 5440 columns and 20620 nonzeros
Model fingerprint: 0x3cd95641
Variable types: 0 continuous, 5440 integer (4800 binary)
Coefficient statistics:
  Matrix range     [1e+00, 1e+03]
  Objective range  [1e-01, 1e-01]
  Bounds range     [1e+00, 5e+02]
  RHS range        [1e+00, 1e+03]
Presolve removed 607 rows and 650 columns
Presolve time: 0.04s
Presolved: 5386 rows, 4790 columns, 17870 nonzeros
Variable types: 0 continuous, 4790 integer (4150 binary)

Root relaxation: objective 6.400000e+01, 126 iterations, 0.00 seconds

    Nodes    |    Current Node    |     Objective Bounds      |     Work
 Expl Unexpl |  Obj  Depth IntInf | Incumbent    BestBd   Gap | It/Node Time

     0     0   64.00000    0   44          -   64.00000      -     -    0s
     0     0   64.00000    0   71          -   64.00000      -     -    0s
     0     0   64.00000    0   71          -   64.00000      -     -    0s
     0     0   64.00000    0   54          -   64.00000      -     -    0s
     0     0   64.00000    0   57          -   64.00000      -     -    0s
     0     0   64.00000    0   51          -   64.00000      -     -    0s
H    0     0                    4203.5000000   64.00000  98.5%     -    0s
     0     0   64.00000    0   51 4203.50000   64.00000  98.5%     -    0s
H    0     0                      90.7000000   64.00000  29.4%     -    0s

Cutting planes:
  Gomory: 3
  Cover: 66
  Implied bound: 50
  Clique: 6
  MIR: 38
  Flow cover: 13
  RLT: 4
  Relax-and-lift: 38

Explored 1 nodes (2075 simplex iterations) in 0.78 seconds
Thread count was 32 (of 32 available processors)

Solution count 2: 90.7 4203.5 

Optimal solution found (tolerance 3.00e-01)
Best objective 9.070000000000e+01, best bound 6.400000000000e+01, gap 29.4377%
